RT is False
Default write of storage_offers_DA.csv just to have a file (but constraint should be inactive)
Reading model...
...model read.
creating competitive generators file...
...competitive generators recorded.
Loading data...
.. day-ahead data with real-time VRE data read.
Compiling instance...
...instance created.
Creating Offer Mitigation (model will solve as dispatch if TRUE)...
NOTE: storage offers will not be mitigated
...storage offer mitigation file created
Converting model to MPEC...
...converted
NOTE: initial MIP solve with only storage competitive to get feasible solution
Solving...

Welcome to IBM(R) ILOG(R) CPLEX(R) Interactive Optimizer 12.9.0.0
  with Simplex, Mixed Integer & Barrier Optimizers
5725-A06 5725-A29 5724-Y48 5724-Y49 5724-Y54 5724-Y55 5655-Y21
Copyright IBM Corp. 1988, 2019.  All Rights Reserved.

Type 'help' for a list of available commands.
Type 'help' followed by a command name for more
information on commands.

CPLEX> Logfile 'cplex.log' closed.
Logfile 'C:\Users\llavin\Desktop\test826\logs\tmp1pap79bz.cplex.log' open.
CPLEX> New value for parallel optimization mode: -1
CPLEX> New value for emphasis for MIP optimization: 1
CPLEX> New value for mixed integer optimality gap tolerance: 0.01
CPLEX> New value for integrality tolerance: 1e-12
CPLEX> New value for deterministic time limit in ticks: 75000
CPLEX> Problem 'C:\Users\llavin\Desktop\test826\logs\tmp7ol21mox.pyomo.lp' read.
Read time = 0.23 sec. (13.92 ticks)
CPLEX> Problem name         : C:\Users\llavin\Desktop\test826\logs\tmp7ol21mox.pyomo.lp
Objective sense      : Maximize
Variables            :   53809  [Nneg: 1,  Box: 22004,  Free: 4464,
                                 Binary: 27340]
Objective nonzeros   :    9023
Linear constraints   :  123253  [Less: 41346,  Greater: 59096,  Equal: 22811]
  Nonzeros           :  293211
  RHS nonzeros       :   67485

Variables            : Min LB: -5000.000        Max UB: 1000000.       
Objective nonzeros   : Min   : 0.008333333      Max   : 2500.000       
Linear constraints   :
  Nonzeros           : Min   : 0.008333333      Max   : 1000000.       
  RHS nonzeros       : Min   : 0.008333333      Max   : 1000000.       
CPLEX> CPXPARAM_Parallel                                -1
CPXPARAM_Emphasis_MIP                            1
CPXPARAM_DetTimeLimit                            75000
CPXPARAM_MIP_Tolerances_MIPGap                   0.01
CPXPARAM_MIP_Tolerances_Integrality              9.9999999999999998e-13
Tried aggregator 4 times.
MIP Presolve eliminated 88733 rows and 19033 columns.
MIP Presolve added 3368 rows and 0 columns.
MIP Presolve modified 24843 coefficients.
Aggregator did 12984 substitutions.
Reduced MIP has 24904 rows, 21233 columns, and 71660 nonzeros.
Reduced MIP has 8393 binaries, 0 generals, 0 SOSs, and 0 indicators.
Presolve time = 0.33 sec. (192.34 ticks)
Probing fixed 384 vars, tightened 3916 bounds.
Probing time = 0.08 sec. (19.02 ticks)
Tried aggregator 2 times.
MIP Presolve eliminated 872 rows and 774 columns.
MIP Presolve modified 3027 coefficients.
Aggregator did 33 substitutions.
Reduced MIP has 23999 rows, 20426 columns, and 69043 nonzeros.
Reduced MIP has 8006 binaries, 0 generals, 0 SOSs, and 0 indicators.
Presolve time = 0.11 sec. (87.54 ticks)
Probing fixed 1 vars, tightened 266 bounds.
Probing time = 0.16 sec. (24.42 ticks)
Clique table members: 44882.
MIP emphasis: integer feasibility.
MIP search method: dynamic search.
Parallel mode: opportunistic, using up to 32 threads.
Root relaxation solution time = 0.42 sec. (641.95 ticks)

        Nodes                                         Cuts/
   Node  Left     Objective  IInf  Best Integer    Best Bound    ItCnt     Gap

      0     0     3395.4553   133                   3395.4553     5277         
*     0+    0                         3395.4553     3395.4553             0.00%
      0     0        cutoff           3395.4553     3395.4553     5277    0.00%
Elapsed time = 1.72 sec. (1337.73 ticks, tree = 0.01 MB, solutions = 1)

Root node processing (before b&c):
  Real time             =    1.75 sec. (1339.68 ticks)
Parallel b&c, 32 threads:
  Real time             =    0.00 sec. (0.00 ticks)
  Sync time (average)   =    0.00 sec.
  Wait time (average)   =    0.00 sec.
                          ------------
Total (root+branch&cut) =    1.75 sec. (1339.68 ticks)

Solution pool: 1 solution saved.

MIP - Integer optimal solution:  Objective =  3.3954552999e+03
Solution time =    1.75 sec.  Iterations = 5277  Nodes = 0
Deterministic time = 1339.83 ticks  (765.62 ticks/sec)

CPLEX> Incumbent solution written to file 'C:\Users\llavin\Desktop\test826\logs\tmp9u0uoyzo.cplex.sol'.
CPLEX> NOTE: no warmstart specified for MIP iteration, default behavior is true
NOTE: resolving with all competitive generators using storage-only solution to warmstart
Solving...

Welcome to IBM(R) ILOG(R) CPLEX(R) Interactive Optimizer 12.9.0.0
  with Simplex, Mixed Integer & Barrier Optimizers
5725-A06 5725-A29 5724-Y48 5724-Y49 5724-Y54 5724-Y55 5655-Y21
Copyright IBM Corp. 1988, 2019.  All Rights Reserved.

Type 'help' for a list of available commands.
Type 'help' followed by a command name for more
information on commands.

CPLEX> Logfile 'cplex.log' closed.
Logfile 'C:\Users\llavin\Desktop\test826\logs\tmp04lf7t1u.cplex.log' open.
CPLEX> New value for parallel optimization mode: -1
CPLEX> New value for emphasis for MIP optimization: 1
CPLEX> New value for mixed integer optimality gap tolerance: 0.01
CPLEX> New value for integrality tolerance: 1e-12
CPLEX> New value for deterministic time limit in ticks: 75000
CPLEX> Problem 'C:\Users\llavin\Desktop\test826\logs\tmpeyheo7yr.pyomo.lp' read.
Read time = 0.23 sec. (13.94 ticks)
CPLEX> MIP start file 'C:\Users\llavin\Desktop\test826\logs\tmpcaqxll6f.cplex.mst' read.
CPLEX> Problem name         : C:\Users\llavin\Desktop\test826\logs\tmpeyheo7yr.pyomo.lp
Objective sense      : Maximize
Variables            :   54529  [Nneg: 1,  Box: 22724,  Free: 4464,
                                 Binary: 27340]
Objective nonzeros   :    9743
Linear constraints   :  123253  [Less: 41346,  Greater: 59096,  Equal: 22811]
  Nonzeros           :  293211
  RHS nonzeros       :   67485

Variables            : Min LB: -5000.000        Max UB: 1000000.       
Objective nonzeros   : Min   : 0.008333333      Max   : 2500.000       
Linear constraints   :
  Nonzeros           : Min   : 0.008333333      Max   : 1000000.       
  RHS nonzeros       : Min   : 0.008333333      Max   : 1000000.       
CPLEX> CPXPARAM_Parallel                                -1
CPXPARAM_Emphasis_MIP                            1
CPXPARAM_DetTimeLimit                            75000
CPXPARAM_MIP_Tolerances_MIPGap                   0.01
CPXPARAM_MIP_Tolerances_Integrality              9.9999999999999998e-13
Warning:  No solution found from 1 MIP starts.
Retaining values of one MIP start for possible repair.
Tried aggregator 4 times.
MIP Presolve eliminated 88733 rows and 19753 columns.
MIP Presolve added 3368 rows and 0 columns.
MIP Presolve modified 24843 coefficients.
Aggregator did 12984 substitutions.
Reduced MIP has 24904 rows, 21233 columns, and 71660 nonzeros.
Reduced MIP has 8393 binaries, 0 generals, 0 SOSs, and 0 indicators.
Presolve time = 0.34 sec. (192.75 ticks)
Probing fixed 384 vars, tightened 3916 bounds.
Probing time = 0.06 sec. (19.02 ticks)
Tried aggregator 2 times.
MIP Presolve eliminated 872 rows and 774 columns.
MIP Presolve modified 3027 coefficients.
Aggregator did 33 substitutions.
Reduced MIP has 23999 rows, 20426 columns, and 69043 nonzeros.
Reduced MIP has 8006 binaries, 0 generals, 0 SOSs, and 0 indicators.
Presolve time = 0.11 sec. (87.54 ticks)
Probing fixed 1 vars, tightened 266 bounds.
Probing time = 0.16 sec. (24.42 ticks)
Clique table members: 44882.
MIP emphasis: integer feasibility.
MIP search method: dynamic search.
Parallel mode: opportunistic, using up to 32 threads.
Root relaxation solution time = 0.42 sec. (641.95 ticks)

        Nodes                                         Cuts/
   Node  Left     Objective  IInf  Best Integer    Best Bound    ItCnt     Gap

      0     0     3395.4553   133                   3395.4553     5277         
*     0+    0                         3395.4553     3395.4553             0.00%
      0     0        cutoff           3395.4553     3395.4553     5277    0.00%
Elapsed time = 1.81 sec. (1365.38 ticks, tree = 0.01 MB, solutions = 1)

Root node processing (before b&c):
  Real time             =    1.84 sec. (1367.35 ticks)
Parallel b&c, 32 threads:
  Real time             =    0.00 sec. (0.00 ticks)
  Sync time (average)   =    0.00 sec.
  Wait time (average)   =    0.00 sec.
                          ------------
Total (root+branch&cut) =    1.84 sec. (1367.35 ticks)

Solution pool: 1 solution saved.

MIP - Integer optimal solution:  Objective =  3.3954552999e+03
Solution time =    1.84 sec.  Iterations = 5277  Nodes = 0
Deterministic time = 1367.50 ticks  (741.60 ticks/sec)

CPLEX> Incumbent solution written to file 'C:\Users\llavin\Desktop\test826\logs\tmpcf9yqa9b.cplex.sol'.
CPLEX> Exporting results... 
